c 
c 
c Ce fichier a ete genere automatiquement par le programme les_axiomes_universels.py
c Il contient les axiomes universels pour le jeu Hitman
c Il contient egalement les deductions ajoutees a chaque tour
c Il correspond a un plateau de taille 3x3
c 
c 
p cnf 9 293
-7 -6 -5 -4 -3 -2 -1 0
-8 -6 -5 -4 -3 -2 -1 0
-9 -6 -5 -4 -3 -2 -1 0
-8 -7 -5 -4 -3 -2 -1 0
-9 -7 -5 -4 -3 -2 -1 0
-9 -8 -5 -4 -3 -2 -1 0
-8 -7 -6 -4 -3 -2 -1 0
-9 -7 -6 -4 -3 -2 -1 0
-9 -8 -6 -4 -3 -2 -1 0
-9 -8 -7 -4 -3 -2 -1 0
-8 -7 -6 -5 -3 -2 -1 0
-9 -7 -6 -5 -3 -2 -1 0
-9 -8 -6 -5 -3 -2 -1 0
-9 -8 -7 -5 -3 -2 -1 0
-9 -8 -7 -6 -3 -2 -1 0
-8 -7 -6 -5 -4 -2 -1 0
-9 -7 -6 -5 -4 -2 -1 0
-9 -8 -6 -5 -4 -2 -1 0
-9 -8 -7 -5 -4 -2 -1 0
-9 -8 -7 -6 -4 -2 -1 0
-9 -8 -7 -6 -5 -2 -1 0
-8 -7 -6 -5 -4 -3 -1 0
-9 -7 -6 -5 -4 -3 -1 0
-9 -8 -6 -5 -4 -3 -1 0
-9 -8 -7 -5 -4 -3 -1 0
-9 -8 -7 -6 -4 -3 -1 0
-9 -8 -7 -6 -5 -3 -1 0
-9 -8 -7 -6 -5 -4 -1 0
-8 -7 -6 -5 -4 -3 -2 0
-9 -7 -6 -5 -4 -3 -2 0
-9 -8 -6 -5 -4 -3 -2 0
-9 -8 -7 -5 -4 -3 -2 0
-9 -8 -7 -6 -4 -3 -2 0
-9 -8 -7 -6 -5 -3 -2 0
-9 -8 -7 -6 -5 -4 -2 0
-9 -8 -7 -6 -5 -4 -3 0
1 7 8 9 0
2 7 8 9 0
3 7 8 9 0
4 7 8 9 0
5 7 8 9 0
6 7 8 9 0
1 6 8 9 0
2 6 8 9 0
3 6 8 9 0
4 6 8 9 0
5 6 8 9 0
1 6 7 9 0
2 6 7 9 0
3 6 7 9 0
4 6 7 9 0
5 6 7 9 0
1 6 7 8 0
2 6 7 8 0
3 6 7 8 0
4 6 7 8 0
5 6 7 8 0
1 5 8 9 0
2 5 8 9 0
3 5 8 9 0
4 5 8 9 0
1 5 7 9 0
2 5 7 9 0
3 5 7 9 0
4 5 7 9 0
1 5 7 8 0
2 5 7 8 0
3 5 7 8 0
4 5 7 8 0
1 5 6 9 0
2 5 6 9 0
3 5 6 9 0
4 5 6 9 0
1 5 6 8 0
2 5 6 8 0
3 5 6 8 0
4 5 6 8 0
1 5 6 7 0
2 5 6 7 0
3 5 6 7 0
4 5 6 7 0
1 4 8 9 0
2 4 8 9 0
3 4 8 9 0
1 4 7 9 0
2 4 7 9 0
3 4 7 9 0
1 4 7 8 0
2 4 7 8 0
3 4 7 8 0
1 4 6 9 0
2 4 6 9 0
3 4 6 9 0
1 4 6 8 0
2 4 6 8 0
3 4 6 8 0
1 4 6 7 0
2 4 6 7 0
3 4 6 7 0
1 4 5 9 0
2 4 5 9 0
3 4 5 9 0
1 4 5 8 0
2 4 5 8 0
3 4 5 8 0
1 4 5 7 0
2 4 5 7 0
3 4 5 7 0
1 4 5 6 0
2 4 5 6 0
3 4 5 6 0
1 3 8 9 0
2 3 8 9 0
1 3 7 9 0
2 3 7 9 0
1 3 7 8 0
2 3 7 8 0
1 3 6 9 0
2 3 6 9 0
1 3 6 8 0
2 3 6 8 0
1 3 6 7 0
2 3 6 7 0
1 3 5 9 0
2 3 5 9 0
1 3 5 8 0
2 3 5 8 0
1 3 5 7 0
2 3 5 7 0
1 3 5 6 0
2 3 5 6 0
1 3 4 9 0
2 3 4 9 0
1 3 4 8 0
2 3 4 8 0
1 3 4 7 0
2 3 4 7 0
1 3 4 6 0
2 3 4 6 0
1 3 4 5 0
2 3 4 5 0
1 2 8 9 0
1 2 7 9 0
1 2 7 8 0
1 2 6 9 0
1 2 6 8 0
1 2 6 7 0
1 2 5 9 0
1 2 5 8 0
1 2 5 7 0
1 2 5 6 0
1 2 4 9 0
1 2 4 8 0
1 2 4 7 0
1 2 4 6 0
1 2 4 5 0
1 2 3 9 0
1 2 3 8 0
1 2 3 7 0
1 2 3 6 0
1 2 3 5 0
1 2 3 4 0
-8 -7 -6 -5 -4 -3 -2 -1 0
-9 -7 -6 -5 -4 -3 -2 -1 0
-9 -8 -6 -5 -4 -3 -2 -1 0
-9 -8 -7 -5 -4 -3 -2 -1 0
-9 -8 -7 -6 -4 -3 -2 -1 0
-9 -8 -7 -6 -5 -3 -2 -1 0
-9 -8 -7 -6 -5 -4 -2 -1 0
-9 -8 -7 -6 -5 -4 -3 -1 0
-9 -8 -7 -6 -5 -4 -3 -2 0
1 8 9 0
2 8 9 0
3 8 9 0
4 8 9 0
5 8 9 0
6 8 9 0
7 8 9 0
1 7 9 0
2 7 9 0
3 7 9 0
4 7 9 0
5 7 9 0
6 7 9 0
1 7 8 0
2 7 8 0
3 7 8 0
4 7 8 0
5 7 8 0
6 7 8 0
1 6 9 0
2 6 9 0
3 6 9 0
4 6 9 0
5 6 9 0
1 6 8 0
2 6 8 0
3 6 8 0
4 6 8 0
5 6 8 0
1 6 7 0
2 6 7 0
3 6 7 0
4 6 7 0
5 6 7 0
1 5 9 0
2 5 9 0
3 5 9 0
4 5 9 0
1 5 8 0
2 5 8 0
3 5 8 0
4 5 8 0
1 5 7 0
2 5 7 0
3 5 7 0
4 5 7 0
1 5 6 0
2 5 6 0
3 5 6 0
4 5 6 0
1 4 9 0
2 4 9 0
3 4 9 0
1 4 8 0
2 4 8 0
3 4 8 0
1 4 7 0
2 4 7 0
3 4 7 0
1 4 6 0
2 4 6 0
3 4 6 0
1 4 5 0
2 4 5 0
3 4 5 0
1 3 9 0
2 3 9 0
1 3 8 0
2 3 8 0
1 3 7 0
2 3 7 0
1 3 6 0
2 3 6 0
1 3 5 0
2 3 5 0
1 3 4 0
2 3 4 0
1 2 9 0
1 2 8 0
1 2 7 0
1 2 6 0
1 2 5 0
1 2 4 0
1 2 3 0
-9 -8 -7 -6 -5 -4 -3 -2 -1 0
1 9 0
2 9 0
3 9 0
4 9 0
5 9 0
6 9 0
7 9 0
8 9 0
1 8 0
2 8 0
3 8 0
4 8 0
5 8 0
6 8 0
7 8 0
1 7 0
2 7 0
3 7 0
4 7 0
5 7 0
6 7 0
1 6 0
2 6 0
3 6 0
4 6 0
5 6 0
1 5 0
2 5 0
3 5 0
4 5 0
1 4 0
2 4 0
3 4 0
1 3 0
2 3 0
1 2 0
1 2 3 4 5 6 7 8 9 0
